20 10
30 84 41 92 7 18 83 79 37 44
39 76 99 16 18 61 44 38 37 48
56 37 68 66 66 19 83 22 74 85
19 58 42 87 29 3 39 39 96 30
88 39 43 71 64 79 47 16 46 24
39 97 98 54 32 94 94 92 14 46
65 12 36 92 67 25 56 59 33 33
18 64 48 52 6 30 54 46 71 81
16 43 45 66 73 64 35 42 84 25
32 14 55 79 9 65 7 91 72 44
51 70 97 69 91 21 77 15 77 94
91 95 65 86 62 89 89 59 19 64
44 33 35 71 45 8 63 25 71 88
11 60 4 40 96 30 88 35 61 2
99 28 48 88 75 65 20 49 26 64
27 58 28 50 43 5 49 59 38 2
31 45 36 11 72 28 47 63 6 59
41 55 78 98 11 3 53 39 43 88
41 55 52 54 37 77 65 8 28 67
70 12 75 16 93 4 40 48 82 36
